(set-logic SLIA)
(define-fun func0  ((A String) (B String) (C String) (D String) (E String) ) String (str.replace (str.replace C  D  E ) A  B ))
(define-fun func1  ((A String) (B String) (C String) (D String) ) String (str.replace A  B  (str.++ C  D )))
(define-fun func2  ((A String) (B Int) ) String (str.substr A  0  B ))
(define-fun func3  ((A String) (B String) (C Int) ) String (str.substr A  0  (str.indexof A  B  C )))
(define-fun func4  ((A String) (B String) ) String (str.substr A  0  (str.indexof A  B  0 )))
(define-fun func5  ((A String) (B String) (C String) (D Int) ) String (str.substr A  0  (str.indexof B  C  D )))
(define-fun func6  ((A String) (B String) (C String) ) String (str.substr A  0  (str.indexof B  C  0 )))
(define-fun func7  ((A String) (B Int) ) String (str.substr A  (+ 3  5 ) B ))
(define-fun func8  ((A String) (B Int) (C Int) ) String (str.substr A  (+ 3  C ) B ))
(define-fun func9  ((A String) (B Int) (C Int) ) String (str.substr A  (+ C  5 ) B ))
(define-fun func10  ((A String) (B Int) (C Int) (D Int) ) String (str.substr A  (+ C  D ) B ))
(define-fun func11  ((A String) (B Int) (C Int) ) String (str.substr A  (+ B  C ) 3 ))
(define-fun func12  ((A String) (B Int) ) String (str.substr A  3  B ))
(define-fun func13  ((A String) (B Int) (C Int) ) String (str.substr A  (- (str.len A ) C ) B ))
(define-fun func14  ((A String) (B Int) (C Int) (D String) ) String (str.substr A  (- (str.len D ) C ) B ))
(define-fun func15  ((A String) (B Int) (C String) ) String (str.substr A  (- (str.len C ) 3 ) B ))
(define-fun func16  ((A String) (B Int) (C Int) ) String (str.substr A  (- C  3 ) B ))
(define-fun func17  ((A String) (B Int) (C Int) (D Int) ) String (str.substr A  (- C  D ) B ))
(define-fun func18  ((A String) (B Int) (C Int) ) String (str.substr A  (- B  C ) 3 ))
(define-fun func19  ((A String) (B Int) (C String) (D Int) ) String (str.substr A  B  (str.indexof A  C  D )))
(define-fun func20  ((A String) (B Int) (C String) ) String (str.substr A  B  (str.indexof A  C  1 )))
(define-fun func21  ((A String) (B Int) (C String) ) String (str.substr A  B  (str.indexof A  C  0 )))
(define-fun func22  ((A String) (B Int) (C String) (D String) (E Int) ) String (str.substr A  B  (str.indexof C  D  E )))
(define-fun func23  ((A String) (B Int) (C String) (D String) ) String (str.substr A  B  (str.indexof C  D  1 )))
(define-fun func24  ((A String) (B Int) (C String) (D String) ) String (str.substr A  B  (str.indexof C  D  0 )))
(define-fun func25  ((A String) (B Int) ) String (str.substr A  B  3 ))
(define-fun func26  ((A String) (B String) ) Int (str.indexof A  B  1 ))
(define-fun func27  ((A String) (B String) ) Int (str.indexof A  B  0 ))
(define-fun func28  ((A String) (B String) (C String) ) String (str.++ A  (str.++ B  C )))
(define-fun func29  ((A String) (B String) (C String) (D String) (E Int) ) String (str.++ A  (str.++ B  (str.++ (str.at D  E ) C ))))
(define-fun func30  ((A String) (B String) (C String) (D String) ) String (str.++ A  (str.++ B  (str.++ C  D ))))
(define-fun func31  ((A String) (B String) (C String) (D String) (E String) ) String (str.++ A  (str.replace B  C  (str.++ D  E ))))
(define-fun func32  ((A String) (B String) (C String) (D Int) ) String (str.++ A  (str.++ (str.at C  D ) B )))
(define-fun func33  ((A String) (B String) (C Int) ) String (str.++ (str.at B  C ) A ))
(define-fun func34  ((A String) (B String) ) String (str.++ (str.at B  0 ) A ))
(define-fun func35  ((A String) (B Int) (C String) (D String) ) String (str.++ (str.at A  B ) (str.++ C  D )))
(define-fun func36  ((A String) (B Int) (C String) (D String) (E String) ) String (str.++ (str.at A  B ) (str.++ C  (str.++ D  E ))))
(define-fun func37  ((A String) ) String (str.at A  0 ))
(define-fun func39  ((A Int) ) Int (+ A  5 ))
(define-fun func40  ((A Int) (B String) ) Int (- (str.len B ) A ))
(define-fun func41  ((A String) ) Int (- (str.len A ) 3 ))
(define-fun func42  ((A Int) ) Int (- A  3 ))
(synth-fun f ((name String)) String
( (Start String (ntString))
 (ntString String (
	name " " "+" "-" "." 
	(func0 ntString ntString ntString ntString ntString)
	(func1 ntString ntString ntString ntString)
	(func2 ntString ntInt)
	(func3 ntString ntString ntInt)
	(func4 ntString ntString)
	(func5 ntString ntString ntString ntInt)
	(func6 ntString ntString ntString)
	(func7 ntString ntInt)
	(func9 ntString ntInt ntInt)
	(func10 ntString ntInt ntInt ntInt)
	(func15 ntString ntInt ntString)
	(func16 ntString ntInt ntInt)
	(func17 ntString ntInt ntInt ntInt)
	(func18 ntString ntInt ntInt)
	(func19 ntString ntInt ntString ntInt)
	(func20 ntString ntInt ntString)
	(func21 ntString ntInt ntString)
	(func22 ntString ntInt ntString ntString ntInt)
	(func23 ntString ntInt ntString ntString)
	(func28 ntString ntString ntString)
	(func29 ntString ntString ntString ntString ntInt)
	(func30 ntString ntString ntString ntString)
	(func31 ntString ntString ntString ntString ntString)
	(func32 ntString ntString ntString ntInt)
	(func33 ntString ntString ntInt)
	(func35 ntString ntInt ntString ntString)
	(func36 ntString ntInt ntString ntString ntString)
	(func37 ntString)
	(str.++ ntString ntString)
	(ite ntBool ntString ntString)
	(str.substr ntString ntInt ntInt)
))
 (ntInt Int (
	0 1 2 3 4 5 
	(func26 ntString ntString)
	(func39 ntInt)
	(func40 ntInt ntString)
	(func41 ntString)
	(func42 ntInt)
	(str.len ntString)
	(str.to.int ntString)
	(ite ntBool ntInt ntInt)
))
 (ntBool Bool (
	true false
	(= ntInt ntInt)
	(str.prefixof ntString ntString)
	(str.suffixof ntString ntString)
	(str.contains ntString ntString)
))
))
(constraint (= (f "+106 769-858-438") "106"))
(constraint (= (f "+106 769-858-438") "106"))
(constraint (= (f "+106 769-858-438") "106"))
(constraint (= (f "+83 973-757-831") "83"))
(constraint (= (f "+83 973-757-831") "83"))
(constraint (= (f "+83 973-757-831") "83"))
(constraint (= (f "+62 647-787-775") "62"))
(constraint (= (f "+62 647-787-775") "62"))
(constraint (= (f "+62 647-787-775") "62"))
(constraint (= (f "+172 027-507-632") "172"))
(constraint (= (f "+172 027-507-632") "172"))
(constraint (= (f "+172 027-507-632") "172"))
(constraint (= (f "+72 001-050-856") "72"))
(constraint (= (f "+72 001-050-856") "72"))
(constraint (= (f "+72 001-050-856") "72"))
(constraint (= (f "+95 310-537-401") "95"))
(constraint (= (f "+95 310-537-401") "95"))
(constraint (= (f "+95 310-537-401") "95"))
(constraint (= (f "+6 775-969-238") "6"))
(constraint (= (f "+6 775-969-238") "6"))
(constraint (= (f "+6 775-969-238") "6"))
(constraint (= (f "+174 594-539-946") "174"))
(constraint (= (f "+174 594-539-946") "174"))
(constraint (= (f "+174 594-539-946") "174"))
(constraint (= (f "+155 927-275-860") "155"))
(constraint (= (f "+155 927-275-860") "155"))
(constraint (= (f "+155 927-275-860") "155"))
(constraint (= (f "+167 405-461-331") "167"))
(constraint (= (f "+167 405-461-331") "167"))
(constraint (= (f "+167 405-461-331") "167"))
(constraint (= (f "+10 538-347-401") "10"))
(constraint (= (f "+10 538-347-401") "10"))
(constraint (= (f "+10 538-347-401") "10"))
(constraint (= (f "+60 971-986-103") "60"))
(constraint (= (f "+60 971-986-103") "60"))
(constraint (= (f "+60 971-986-103") "60"))
(constraint (= (f "+13 258-276-941") "13"))
(constraint (= (f "+13 258-276-941") "13"))
(constraint (= (f "+13 258-276-941") "13"))
(constraint (= (f "+2 604-746-137") "2"))
(constraint (= (f "+2 604-746-137") "2"))
(constraint (= (f "+2 604-746-137") "2"))
(constraint (= (f "+25 998-898-180") "25"))
(constraint (= (f "+25 998-898-180") "25"))
(constraint (= (f "+25 998-898-180") "25"))
(constraint (= (f "+151 862-946-541") "151"))
(constraint (= (f "+151 862-946-541") "151"))
(constraint (= (f "+151 862-946-541") "151"))
(constraint (= (f "+118 165-041-038") "118"))
(constraint (= (f "+118 165-041-038") "118"))
(constraint (= (f "+118 165-041-038") "118"))
(constraint (= (f "+144 170-592-272") "144"))
(constraint (= (f "+144 170-592-272") "144"))
(constraint (= (f "+144 170-592-272") "144"))
(constraint (= (f "+94 462-008-482") "94"))
(constraint (= (f "+94 462-008-482") "94"))
(constraint (= (f "+94 462-008-482") "94"))
(constraint (= (f "+82 685-122-086") "82"))
(constraint (= (f "+82 685-122-086") "82"))
(constraint (= (f "+82 685-122-086") "82"))
(constraint (= (f "+82 675-366-472") "82"))
(constraint (= (f "+82 675-366-472") "82"))
(constraint (= (f "+82 675-366-472") "82"))
(constraint (= (f "+80 066-433-096") "80"))
(constraint (= (f "+80 066-433-096") "80"))
(constraint (= (f "+80 066-433-096") "80"))
(constraint (= (f "+163 039-436-166") "163"))
(constraint (= (f "+163 039-436-166") "163"))
(constraint (= (f "+163 039-436-166") "163"))
(constraint (= (f "+138 808-083-074") "138"))
(constraint (= (f "+138 808-083-074") "138"))
(constraint (= (f "+138 808-083-074") "138"))
(constraint (= (f "+42 643-245-738") "42"))
(constraint (= (f "+42 643-245-738") "42"))
(constraint (= (f "+42 643-245-738") "42"))
(constraint (= (f "+169 822-542-726") "169"))
(constraint (= (f "+169 822-542-726") "169"))
(constraint (= (f "+169 822-542-726") "169"))
(constraint (= (f "+176 767-782-369") "176"))
(constraint (= (f "+176 767-782-369") "176"))
(constraint (= (f "+176 767-782-369") "176"))
(constraint (= (f "+47 414-369-343") "47"))
(constraint (= (f "+47 414-369-343") "47"))
(constraint (= (f "+47 414-369-343") "47"))
(constraint (= (f "+138 885-618-512") "138"))
(constraint (= (f "+138 885-618-512") "138"))
(constraint (= (f "+138 885-618-512") "138"))
(constraint (= (f "+104 158-671-355") "104"))
(constraint (= (f "+104 158-671-355") "104"))
(constraint (= (f "+104 158-671-355") "104"))
(constraint (= (f "+188 280-087-526") "188"))
(constraint (= (f "+188 280-087-526") "188"))
(constraint (= (f "+188 280-087-526") "188"))
(constraint (= (f "+50 268-571-336") "50"))
(constraint (= (f "+50 268-571-336") "50"))
(constraint (= (f "+50 268-571-336") "50"))
(constraint (= (f "+183 225-960-024") "183"))
(constraint (= (f "+183 225-960-024") "183"))
(constraint (= (f "+183 225-960-024") "183"))
(constraint (= (f "+58 191-982-491") "58"))
(constraint (= (f "+58 191-982-491") "58"))
(constraint (= (f "+58 191-982-491") "58"))
(constraint (= (f "+9 507-092-535") "9"))
(constraint (= (f "+9 507-092-535") "9"))
(constraint (= (f "+9 507-092-535") "9"))
(constraint (= (f "+64 061-601-398") "64"))
(constraint (= (f "+64 061-601-398") "64"))
(constraint (= (f "+64 061-601-398") "64"))
(constraint (= (f "+189 831-591-877") "189"))
(constraint (= (f "+189 831-591-877") "189"))
(constraint (= (f "+189 831-591-877") "189"))
(constraint (= (f "+129 425-765-844") "129"))
(constraint (= (f "+129 425-765-844") "129"))
(constraint (= (f "+129 425-765-844") "129"))
(constraint (= (f "+94 856-734-046") "94"))
(constraint (= (f "+94 856-734-046") "94"))
(constraint (= (f "+94 856-734-046") "94"))
(constraint (= (f "+35 082-845-261") "35"))
(constraint (= (f "+35 082-845-261") "35"))
(constraint (= (f "+35 082-845-261") "35"))
(constraint (= (f "+185 394-622-272") "185"))
(constraint (= (f "+185 394-622-272") "185"))
(constraint (= (f "+185 394-622-272") "185"))
(constraint (= (f "+163 905-707-740") "163"))
(constraint (= (f "+163 905-707-740") "163"))
(constraint (= (f "+163 905-707-740") "163"))
(constraint (= (f "+23 448-213-807") "23"))
(constraint (= (f "+23 448-213-807") "23"))
(constraint (= (f "+23 448-213-807") "23"))
(constraint (= (f "+42 634-077-089") "42"))
(constraint (= (f "+42 634-077-089") "42"))
(constraint (= (f "+42 634-077-089") "42"))
(constraint (= (f "+18 051-287-382") "18"))
(constraint (= (f "+18 051-287-382") "18"))
(constraint (= (f "+18 051-287-382") "18"))
(constraint (= (f "+29 773-545-520") "29"))
(constraint (= (f "+29 773-545-520") "29"))
(constraint (= (f "+29 773-545-520") "29"))
(constraint (= (f "+43 249-097-743") "43"))
(constraint (= (f "+43 249-097-743") "43"))
(constraint (= (f "+43 249-097-743") "43"))
(constraint (= (f "+158 674-736-891") "158"))
(constraint (= (f "+158 674-736-891") "158"))
(constraint (= (f "+158 674-736-891") "158"))
(constraint (= (f "+45 124-771-454") "45"))
(constraint (= (f "+45 124-771-454") "45"))
(constraint (= (f "+45 124-771-454") "45"))
(constraint (= (f "+180 029-457-654") "180"))
(constraint (= (f "+180 029-457-654") "180"))
(constraint (= (f "+180 029-457-654") "180"))
(constraint (= (f "+75 227-250-652") "75"))
(constraint (= (f "+75 227-250-652") "75"))
(constraint (= (f "+75 227-250-652") "75"))
(constraint (= (f "+5 528-317-854") "5"))
(constraint (= (f "+5 528-317-854") "5"))
(constraint (= (f "+5 528-317-854") "5"))
(constraint (= (f "+81 849-629-290") "81"))
(constraint (= (f "+81 849-629-290") "81"))
(constraint (= (f "+81 849-629-290") "81"))
(constraint (= (f "+46 005-119-176") "46"))
(constraint (= (f "+46 005-119-176") "46"))
(constraint (= (f "+46 005-119-176") "46"))
(constraint (= (f "+108 150-380-705") "108"))
(constraint (= (f "+108 150-380-705") "108"))
(constraint (= (f "+108 150-380-705") "108"))
(constraint (= (f "+40 122-224-247") "40"))
(constraint (= (f "+40 122-224-247") "40"))
(constraint (= (f "+40 122-224-247") "40"))
(constraint (= (f "+68 890-680-027") "68"))
(constraint (= (f "+68 890-680-027") "68"))
(constraint (= (f "+68 890-680-027") "68"))
(constraint (= (f "+169 060-204-504") "169"))
(constraint (= (f "+169 060-204-504") "169"))
(constraint (= (f "+169 060-204-504") "169"))
(constraint (= (f "+95 620-820-945") "95"))
(constraint (= (f "+95 620-820-945") "95"))
(constraint (= (f "+95 620-820-945") "95"))
(constraint (= (f "+43 592-938-846") "43"))
(constraint (= (f "+43 592-938-846") "43"))
(constraint (= (f "+43 592-938-846") "43"))
(constraint (= (f "+7 023-296-647") "7"))
(constraint (= (f "+7 023-296-647") "7"))
(constraint (= (f "+7 023-296-647") "7"))
(constraint (= (f "+20 541-401-396") "20"))
(constraint (= (f "+20 541-401-396") "20"))
(constraint (= (f "+20 541-401-396") "20"))
(constraint (= (f "+64 751-365-934") "64"))
(constraint (= (f "+64 751-365-934") "64"))
(constraint (= (f "+64 751-365-934") "64"))
(constraint (= (f "+163 546-119-476") "163"))
(constraint (= (f "+163 546-119-476") "163"))
(constraint (= (f "+163 546-119-476") "163"))
(constraint (= (f "+198 557-666-779") "198"))
(constraint (= (f "+198 557-666-779") "198"))
(constraint (= (f "+198 557-666-779") "198"))
(constraint (= (f "+14 673-759-017") "14"))
(constraint (= (f "+14 673-759-017") "14"))
(constraint (= (f "+14 673-759-017") "14"))
(constraint (= (f "+161 086-020-168") "161"))
(constraint (= (f "+161 086-020-168") "161"))
(constraint (= (f "+161 086-020-168") "161"))
(constraint (= (f "+65 970-575-488") "65"))
(constraint (= (f "+65 970-575-488") "65"))
(constraint (= (f "+65 970-575-488") "65"))
(constraint (= (f "+2 455-126-377") "2"))
(constraint (= (f "+2 455-126-377") "2"))
(constraint (= (f "+2 455-126-377") "2"))
(constraint (= (f "+196 728-585-376") "196"))
(constraint (= (f "+196 728-585-376") "196"))
(constraint (= (f "+196 728-585-376") "196"))
(constraint (= (f "+33 117-430-125") "33"))
(constraint (= (f "+33 117-430-125") "33"))
(constraint (= (f "+33 117-430-125") "33"))
(constraint (= (f "+195 488-831-768") "195"))
(constraint (= (f "+195 488-831-768") "195"))
(constraint (= (f "+195 488-831-768") "195"))
(constraint (= (f "+86 468-718-108") "86"))
(constraint (= (f "+86 468-718-108") "86"))
(constraint (= (f "+86 468-718-108") "86"))
(constraint (= (f "+194 278-716-950") "194"))
(constraint (= (f "+194 278-716-950") "194"))
(constraint (= (f "+194 278-716-950") "194"))
(constraint (= (f "+43 730-685-847") "43"))
(constraint (= (f "+43 730-685-847") "43"))
(constraint (= (f "+43 730-685-847") "43"))
(constraint (= (f "+140 794-289-551") "140"))
(constraint (= (f "+140 794-289-551") "140"))
(constraint (= (f "+140 794-289-551") "140"))
(constraint (= (f "+21 679-740-834") "21"))
(constraint (= (f "+21 679-740-834") "21"))
(constraint (= (f "+21 679-740-834") "21"))
(constraint (= (f "+98 717-997-323") "98"))
(constraint (= (f "+98 717-997-323") "98"))
(constraint (= (f "+98 717-997-323") "98"))
(constraint (= (f "+47 401-100-231") "47"))
(constraint (= (f "+47 401-100-231") "47"))
(constraint (= (f "+47 401-100-231") "47"))
(constraint (= (f "+143 726-462-368") "143"))
(constraint (= (f "+143 726-462-368") "143"))
(constraint (= (f "+143 726-462-368") "143"))
(constraint (= (f "+147 864-005-968") "147"))
(constraint (= (f "+147 864-005-968") "147"))
(constraint (= (f "+147 864-005-968") "147"))
(constraint (= (f "+130 590-757-665") "130"))
(constraint (= (f "+130 590-757-665") "130"))
(constraint (= (f "+130 590-757-665") "130"))
(constraint (= (f "+197 700-858-976") "197"))
(constraint (= (f "+197 700-858-976") "197"))
(constraint (= (f "+197 700-858-976") "197"))
(constraint (= (f "+158 344-541-946") "158"))
(constraint (= (f "+158 344-541-946") "158"))
(constraint (= (f "+158 344-541-946") "158"))
(constraint (= (f "+56 242-901-234") "56"))
(constraint (= (f "+56 242-901-234") "56"))
(constraint (= (f "+56 242-901-234") "56"))
(constraint (= (f "+132 313-075-754") "132"))
(constraint (= (f "+132 313-075-754") "132"))
(constraint (= (f "+132 313-075-754") "132"))
(constraint (= (f "+130 517-953-149") "130"))
(constraint (= (f "+130 517-953-149") "130"))
(constraint (= (f "+130 517-953-149") "130"))
(constraint (= (f "+158 684-878-743") "158"))
(constraint (= (f "+158 684-878-743") "158"))
(constraint (= (f "+158 684-878-743") "158"))
(constraint (= (f "+52 836-582-035") "52"))
(constraint (= (f "+52 836-582-035") "52"))
(constraint (= (f "+52 836-582-035") "52"))
(constraint (= (f "+138 117-484-671") "138"))
(constraint (= (f "+138 117-484-671") "138"))
(constraint (= (f "+138 117-484-671") "138"))
(constraint (= (f "+50 012-148-873") "50"))
(constraint (= (f "+50 012-148-873") "50"))
(constraint (= (f "+50 012-148-873") "50"))
(constraint (= (f "+105 048-919-483") "105"))
(constraint (= (f "+105 048-919-483") "105"))
(constraint (= (f "+105 048-919-483") "105"))
(constraint (= (f "+18 209-851-997") "18"))
(constraint (= (f "+18 209-851-997") "18"))
(constraint (= (f "+18 209-851-997") "18"))
(constraint (= (f "+176 938-056-084") "176"))
(constraint (= (f "+176 938-056-084") "176"))
(constraint (= (f "+176 938-056-084") "176"))
(constraint (= (f "+141 018-132-973") "141"))
(constraint (= (f "+141 018-132-973") "141"))
(constraint (= (f "+141 018-132-973") "141"))
(constraint (= (f "+199 936-162-415") "199"))
(constraint (= (f "+199 936-162-415") "199"))
(constraint (= (f "+199 936-162-415") "199"))
(constraint (= (f "+33 547-051-264") "33"))
(constraint (= (f "+33 547-051-264") "33"))
(constraint (= (f "+33 547-051-264") "33"))
(constraint (= (f "+161 233-981-513") "161"))
(constraint (= (f "+161 233-981-513") "161"))
(constraint (= (f "+161 233-981-513") "161"))
(constraint (= (f "+115 101-728-328") "115"))
(constraint (= (f "+115 101-728-328") "115"))
(constraint (= (f "+115 101-728-328") "115"))
(constraint (= (f "+45 095-746-635") "45"))
(constraint (= (f "+45 095-746-635") "45"))
(constraint (= (f "+45 095-746-635") "45"))
(constraint (= (f "+106 769-858-438") "106"))
(constraint (= (f "+83 973-757-831") "83"))
(constraint (= (f "+62 647-787-775") "62"))
(constraint (= (f "+172 027-507-632") "172"))
(constraint (= (f "+72 001-050-856") "72"))
(constraint (= (f "+95 310-537-401") "95"))
(constraint (= (f "+6 775-969-238") "6"))
(constraint (= (f "+174 594-539-946") "174"))
(constraint (= (f "+155 927-275-860") "155"))
(constraint (= (f "+167 405-461-331") "167"))
(constraint (= (f "+10 538-347-401") "10"))
(constraint (= (f "+60 971-986-103") "60"))
(constraint (= (f "+13 258-276-941") "13"))
(constraint (= (f "+2 604-746-137") "2"))
(constraint (= (f "+25 998-898-180") "25"))
(constraint (= (f "+151 862-946-541") "151"))
(constraint (= (f "+118 165-041-038") "118"))
(constraint (= (f "+144 170-592-272") "144"))
(constraint (= (f "+94 462-008-482") "94"))
(constraint (= (f "+82 685-122-086") "82"))
(constraint (= (f "+82 675-366-472") "82"))
(constraint (= (f "+80 066-433-096") "80"))
(constraint (= (f "+163 039-436-166") "163"))
(constraint (= (f "+138 808-083-074") "138"))
(constraint (= (f "+42 643-245-738") "42"))
(constraint (= (f "+169 822-542-726") "169"))
(constraint (= (f "+176 767-782-369") "176"))
(constraint (= (f "+47 414-369-343") "47"))
(constraint (= (f "+138 885-618-512") "138"))
(constraint (= (f "+104 158-671-355") "104"))
(constraint (= (f "+188 280-087-526") "188"))
(constraint (= (f "+50 268-571-336") "50"))
(constraint (= (f "+183 225-960-024") "183"))
(constraint (= (f "+58 191-982-491") "58"))
(constraint (= (f "+9 507-092-535") "9"))
(constraint (= (f "+64 061-601-398") "64"))
(constraint (= (f "+189 831-591-877") "189"))
(constraint (= (f "+129 425-765-844") "129"))
(constraint (= (f "+94 856-734-046") "94"))
(constraint (= (f "+35 082-845-261") "35"))
(constraint (= (f "+185 394-622-272") "185"))
(constraint (= (f "+163 905-707-740") "163"))
(constraint (= (f "+23 448-213-807") "23"))
(constraint (= (f "+42 634-077-089") "42"))
(constraint (= (f "+18 051-287-382") "18"))
(constraint (= (f "+29 773-545-520") "29"))
(constraint (= (f "+43 249-097-743") "43"))
(constraint (= (f "+158 674-736-891") "158"))
(constraint (= (f "+45 124-771-454") "45"))
(constraint (= (f "+180 029-457-654") "180"))
(constraint (= (f "+75 227-250-652") "75"))
(constraint (= (f "+5 528-317-854") "5"))
(constraint (= (f "+81 849-629-290") "81"))
(constraint (= (f "+46 005-119-176") "46"))
(constraint (= (f "+108 150-380-705") "108"))
(constraint (= (f "+40 122-224-247") "40"))
(constraint (= (f "+68 890-680-027") "68"))
(constraint (= (f "+169 060-204-504") "169"))
(constraint (= (f "+95 620-820-945") "95"))
(constraint (= (f "+43 592-938-846") "43"))
(constraint (= (f "+7 023-296-647") "7"))
(constraint (= (f "+20 541-401-396") "20"))
(constraint (= (f "+64 751-365-934") "64"))
(constraint (= (f "+163 546-119-476") "163"))
(constraint (= (f "+198 557-666-779") "198"))
(constraint (= (f "+14 673-759-017") "14"))
(constraint (= (f "+161 086-020-168") "161"))
(constraint (= (f "+65 970-575-488") "65"))
(constraint (= (f "+2 455-126-377") "2"))
(constraint (= (f "+196 728-585-376") "196"))
(constraint (= (f "+33 117-430-125") "33"))
(constraint (= (f "+195 488-831-768") "195"))
(constraint (= (f "+86 468-718-108") "86"))
(constraint (= (f "+194 278-716-950") "194"))
(constraint (= (f "+43 730-685-847") "43"))
(constraint (= (f "+140 794-289-551") "140"))
(constraint (= (f "+21 679-740-834") "21"))
(constraint (= (f "+98 717-997-323") "98"))
(constraint (= (f "+47 401-100-231") "47"))
(constraint (= (f "+143 726-462-368") "143"))
(constraint (= (f "+147 864-005-968") "147"))
(constraint (= (f "+130 590-757-665") "130"))
(constraint (= (f "+197 700-858-976") "197"))
(constraint (= (f "+158 344-541-946") "158"))
(constraint (= (f "+56 242-901-234") "56"))
(constraint (= (f "+132 313-075-754") "132"))
(constraint (= (f "+130 517-953-149") "130"))
(constraint (= (f "+158 684-878-743") "158"))
(constraint (= (f "+52 836-582-035") "52"))
(constraint (= (f "+138 117-484-671") "138"))
(constraint (= (f "+50 012-148-873") "50"))
(constraint (= (f "+105 048-919-483") "105"))
(constraint (= (f "+18 209-851-997") "18"))
(constraint (= (f "+176 938-056-084") "176"))
(constraint (= (f "+141 018-132-973") "141"))
(constraint (= (f "+199 936-162-415") "199"))
(constraint (= (f "+33 547-051-264") "33"))
(constraint (= (f "+161 233-981-513") "161"))
(constraint (= (f "+115 101-728-328") "115"))
(constraint (= (f "+45 095-746-635") "45"))
(check-synth)
